Route #1: 24 54 50 22 32 2 11 44 23 46 43 33 52 13
Route #2: 57 6 37 31 45 29 25 35
Route #3: 27 58 51 40 20 36 9 53 18 56 16 28 14 8 30 38
Route #4: 21 4 7 59 3 55 49 10
Route #5: 
Route #6: 1 42 34 39 60 19
Route #7: 5 41 12 48 15
Route #8: 26 47
Route #9: 17
cost 1706.3946033333355
